JOBS = 1..5;
MACHINES = 1..4;
SPEED = 2;
time = array3d(JOBS,MACHINES,1..SPEED,[169,30,174,31,135,24,258,46,73,13,181,32,118,21,212,38,226,40,183,32,242,43,64,11,205,37,57,10,229,41,54,9,64,11,121,21,236,42,129,23]);
energy = array3d(JOBS,MACHINES,1..SPEED,[18,74,17,73,25,78,7,63,48,87,16,72,30,81,12,68,10,67,16,72,8,65,52,89,12,69,56,90,10,66,58,91,52,89,29,81,9,65,27,79]);
precedence = array2d(JOBS,MACHINES,[0,3,2,1,3,1,0,2,0,2,1,3,0,2,3,1,0,1,3,2]);
ME = 1;
TE = 182;
st_old = array2d(JOBS,MACHINES,[11,372,126,41,527,132,0,315,288,557,514,589,56,315,559,261,0,11,261,132]);
SpeedScaling = array2d(JOBS,MACHINES,[2,1,1,2,1,1,1,1,1,2,2,2,1,1,2,1,2,1,1,1]);
